33
raw_data/mm-rcpsp/MMLIB50/J507_3.mm
Time limit set to 60 seconds
Running CP solver
/home/omastto1/General-Optimization-Solver/src/solvers/mmrcpsp.py:42(stream:276:6): Warning: Cumulative expression 'pulse': height is zero, expression is zero everywhere.
                                                                                               VarCumulAtom_419 = pulse(task_0_mode_0, 0)
/home/omastto1/General-Optimization-Solver/src/solvers/mmrcpsp.py:42(stream:276:3904): Warning: Cumulative expression 'pulse': height is zero, expression is zero everywhere.
                                                                                                  VarCumulAtom_570 = pulse(task_51_mode_0, 0)
/home/omastto1/General-Optimization-Solver/src/solvers/mmrcpsp.py:42(stream:277:6): Warning: Cumulative expression 'pulse': height is zero, expression is zero everywhere.
                                                                                               VarCumulAtom_574 = pulse(task_0_mode_0, 0)
/home/omastto1/General-Optimization-Solver/src/solvers/mmrcpsp.py:42(stream:277:3909): Warning: Cumulative expression 'pulse': height is zero, expression is zero everywhere.
                                                                                                  VarCumulAtom_725 = pulse(task_51_mode_0, 0)
 ! --------------------------------------------------- CP Optimizer 20.1.0.0 --
 ! Minimization problem - 205 variables, 278 constraints
 ! TimeLimit            = 60
 ! Workers              = 14
 ! LogVerbosity         = Terse
 ! Initial process time : 0.01s (0.01s extraction + 0.00s propagation)
 !  . Log search space  : 522.4 (before), 522.4 (after)
 !  . Memory usage      : 1.3 MB (before), 1.3 MB (after)
 ! Using parallel search with 14 workers.
 ! ----------------------------------------------------------------------------
 !          Best Branches  Non-fixed    W       Branch decision
                        0        205                 -
 + New bound is 20
 ! Using iterative diving.
 ! Using temporal relaxation.
                        0        205    1            -
 + New bound is 21
 *            58      780  0.76s        1      (gap is 63.79%)
 *            55      838  0.76s        3      (gap is 61.82%)
 *            53      649  0.76s        5      (gap is 60.38%)
 *            51      844  0.76s        9      (gap is 58.82%)
 *            50     1025  0.76s        9      (gap is 58.00%)
 *            49     4416  1.99s        6      (gap is 57.14%)
 *            48    10966  3.80s        6      (gap is 56.25%)
 ! Using failure-directed search.
 *            47    22484  6.99s       10      (gap is 55.32%)
 *            46    25363  7.66s       10      (gap is 54.35%)
 *            45    28373  8.99s        7      (gap is 53.33%)
 *            44    33685  9.65s        8      (gap is 52.27%)
 *            43    38013  10.33s       3      (gap is 51.16%)
 *            42    62466  19.21s       2      (gap is 50.00%)
              42    41620         29    1   F         !presenceOf(task_34_mode_1)
 + New bound is 22 (gap is 47.62%)
              42    49165        110    1   F    24 >= startOf(task_51)
 + New bound is 23 (gap is 45.24%)
 ! ----------------------------------------------------------------------------
 ! Search terminated by limit, 13 solutions found.
 ! Best objective         : 42 (gap is 45.24%)
 ! Best bound             : 23
 ! ----------------------------------------------------------------------------
 ! Number of branches     : 5417249
 ! Number of fails        : 954136
 ! Total memory usage     : 20.0 MB (19.8 MB CP Optimizer + 0.2 MB Concert)
 ! Time spent in solve    : 60.05s (60.04s engine + 0.01s extraction)
 ! Search speed (br. / s) : 90242.4
 ! ----------------------------------------------------------------------------
task_0: (start=0, end=0, size=0, length=0)
Task 0 is scheduled in mode 0 from 0 to 0
task_1: (start=1, end=10, size=9, length=9)
Task 1 is scheduled in mode 2 from 1 to 10
task_2: (start=1, end=6, size=5, length=5)
Task 2 is scheduled in mode 2 from 1 to 6
task_3: (start=0, end=2, size=2, length=2)
Task 3 is scheduled in mode 1 from 0 to 2
task_4: (start=0, end=1, size=1, length=1)
Task 4 is scheduled in mode 0 from 0 to 1
task_5: (start=0, end=1, size=1, length=1)
Task 5 is scheduled in mode 0 from 0 to 1
task_6: (start=8, end=16, size=8, length=8)
Task 6 is scheduled in mode 2 from 8 to 16
task_7: (start=1, end=7, size=6, length=6)
Task 7 is scheduled in mode 2 from 1 to 7
task_8: (start=2, end=10, size=8, length=8)
Task 8 is scheduled in mode 2 from 2 to 10
task_9: (start=2, end=7, size=5, length=5)
Task 9 is scheduled in mode 2 from 2 to 7
task_10: (start=14, end=20, size=6, length=6)
Task 10 is scheduled in mode 1 from 14 to 20
task_11: (start=15, end=19, size=4, length=4)
Task 11 is scheduled in mode 1 from 15 to 19
task_12: (start=13, end=14, size=1, length=1)
Task 12 is scheduled in mode 0 from 13 to 14
task_13: (start=0, end=1, size=1, length=1)
Task 13 is scheduled in mode 0 from 0 to 1
task_14: (start=0, end=3, size=3, length=3)
Task 14 is scheduled in mode 0 from 0 to 3
task_15: (start=1, end=9, size=8, length=8)
Task 15 is scheduled in mode 2 from 1 to 9
task_16: (start=8, end=17, size=9, length=9)
Task 16 is scheduled in mode 1 from 8 to 17
task_17: (start=10, end=13, size=3, length=3)
Task 17 is scheduled in mode 1 from 10 to 13
task_18: (start=2, end=12, size=10, length=10)
Task 18 is scheduled in mode 2 from 2 to 12
task_19: (start=6, end=15, size=9, length=9)
Task 19 is scheduled in mode 2 from 6 to 15
task_20: (start=3, end=6, size=3, length=3)
Task 20 is scheduled in mode 1 from 3 to 6
task_21: (start=7, end=11, size=4, length=4)
Task 21 is scheduled in mode 1 from 7 to 11
task_22: (start=11, end=21, size=10, length=10)
Task 22 is scheduled in mode 2 from 11 to 21
task_23: (start=16, end=24, size=8, length=8)
Task 23 is scheduled in mode 2 from 16 to 24
task_24: (start=6, end=14, size=8, length=8)
Task 24 is scheduled in mode 2 from 6 to 14
task_25: (start=7, end=8, size=1, length=1)
Task 25 is scheduled in mode 0 from 7 to 8
task_26: (start=19, end=21, size=2, length=2)
Task 26 is scheduled in mode 0 from 19 to 21
task_27: (start=10, end=11, size=1, length=1)
Task 27 is scheduled in mode 0 from 10 to 11
task_28: (start=20, end=30, size=10, length=10)
Task 28 is scheduled in mode 2 from 20 to 30
task_29: (start=21, end=25, size=4, length=4)
Task 29 is scheduled in mode 1 from 21 to 25
task_30: (start=21, end=28, size=7, length=7)
Task 30 is scheduled in mode 2 from 21 to 28
task_31: (start=25, end=34, size=9, length=9)
Task 31 is scheduled in mode 2 from 25 to 34
task_32: (start=11, end=14, size=3, length=3)
Task 32 is scheduled in mode 0 from 11 to 14
task_33: (start=21, end=24, size=3, length=3)
Task 33 is scheduled in mode 0 from 21 to 24
task_34: (start=24, end=34, size=10, length=10)
Task 34 is scheduled in mode 2 from 24 to 34
task_35: (start=12, end=21, size=9, length=9)
Task 35 is scheduled in mode 2 from 12 to 21
task_36: (start=40, end=42, size=2, length=2)
Task 36 is scheduled in mode 0 from 40 to 42
task_37: (start=34, end=42, size=8, length=8)
Task 37 is scheduled in mode 2 from 34 to 42
task_38: (start=30, end=40, size=10, length=10)
Task 38 is scheduled in mode 2 from 30 to 40
task_39: (start=24, end=29, size=5, length=5)
Task 39 is scheduled in mode 0 from 24 to 29
task_40: (start=30, end=40, size=10, length=10)
Task 40 is scheduled in mode 2 from 30 to 40
task_41: (start=34, end=40, size=6, length=6)
Task 41 is scheduled in mode 0 from 34 to 40
task_42: (start=29, end=37, size=8, length=8)
Task 42 is scheduled in mode 2 from 29 to 37
task_43: (start=21, end=31, size=10, length=10)
Task 43 is scheduled in mode 2 from 21 to 31
task_44: (start=25, end=34, size=9, length=9)
Task 44 is scheduled in mode 2 from 25 to 34
task_45: (start=20, end=30, size=10, length=10)
Task 45 is scheduled in mode 2 from 20 to 30
task_46: (start=28, end=34, size=6, length=6)
Task 46 is scheduled in mode 1 from 28 to 34
task_47: (start=34, end=42, size=8, length=8)
Task 47 is scheduled in mode 2 from 34 to 42
task_48: (start=20, end=25, size=5, length=5)
Task 48 is scheduled in mode 2 from 20 to 25
task_49: (start=17, end=21, size=4, length=4)
Task 49 is scheduled in mode 1 from 17 to 21
task_50: (start=37, end=42, size=5, length=5)
Task 50 is scheduled in mode 2 from 37 to 42
task_51: (start=42, end=42, size=0, length=0)
Task 51 is scheduled in mode 0 from 42 to 42
Feasible solution found
Objective value: 42
Solution is 55.6 % worse than the lower bound.
